N = ;

m = [
  [0 9 7 0 2 6 1 5 0 10 5 0],
  [5 0 3 2 5 10 9 8 6 5 8 2],
  [10 3 0 9 4 7 1 2 8 8 2 10],
  [6 5 3 0 4 3 10 8 4 3 0 2],
  [7 7 6 9 0 4 9 4 5 2 3 4],
  [8 6 2 9 1 0 10 2 7 6 8 8],
  [3 0 0 8 2 10 0 2 10 2 4 9],
  [5 3 9 6 3 8 3 0 3 4 8 8],
  [5 1 6 5 3 10 10 0 0 6 0 3],
  [7 8 6 4 2 6 8 10 4 0 4 2],
  [8 1 9 8 6 3 5 6 6 0 0 1],
  [0 10 5 5 4 4 8 10 2 1 9 0]
];
